(declare-const delta_i Int)
(declare-const delta_k Int)
(declare-const delta_j Int)
(assert (exists
         ((|k'?1| Int) (|j'?2| Int) (|S1,0?3| Real) (|i'?4| Int)
            (KSUM1?5 Int) (|K1,0?6| Int) (K?7 Int) (|S1,0?8| Real)
            (|j'?9| Int) (KSUM1?10 Int) (|K1,0?11| Int) (K?12 Int)
            (|i'?13| Int) (|j'?14| Int) (i?15 Int) (j?16 Int) (n?17 Int)
            (k?18 Int))
         (and (<= (- k?18) 0) (< (+ (- n?17) k?18) 0) (<= (- K?12) 0)
                (<= (- |K1,0?11|) 0) (= (+ |K1,0?11| (- K?12)) 0)
                (<= (+ KSUM1?10 (- K?12)) 0)
                (= (+ (- |S1,0?8|) |j'?9| (- |K1,0?11|)) 0)
                (= (+ (- KSUM1?10) |K1,0?11|) 0)
                (= (+ |S1,0?8| (- k?18) -1) 0)
                (or (and (= K?12 0) (= (+ (- |j'?9|) k?18 1) 0))
                      (and (<= (+ (- K?12) 1) 0) (<= (+ (- n?17) k?18 2) 0)
                             (<= (- k?18) 0) (<= (+ |j'?9| (- n?17)) 0)
                             (<= (+ (- |j'?9|) 2) 0)))
                (= (+ |j'?9| (- K?12) (- k?18) -1) 0) (<= (- K?12) 0)
                (< (- |j'?9|) 0) (< (- n?17) 0) (<= (+ (- |j'?9|) n?17) 0)
                (<= (- K?7) 0) (<= (- |K1,0?6|) 0) (= (+ |K1,0?6| (- K?7)) 0)
                (<= (+ KSUM1?5 (- K?7)) 0)
                (= (+ (- |S1,0?3|) |i'?4| (- |K1,0?6|)) 0)
                (= (+ (- KSUM1?5) |K1,0?6|) 0) (= (+ |S1,0?3| (- k?18) -1) 0)
                (or (and (= K?7 0) (= (+ (- |j'?2|) |j'?9|) 0)
                           (= (+ (- |i'?4|) k?18 1) 0))
                      (and (<= (+ (- K?7) 1) 0) (<= (+ (- n?17) k?18 2) 0)
                             (<= (- k?18) 0) (<= (+ (- |j'?9|) 1) 0)
                             (<= (- k?18) 0) (<= (+ |i'?4| (- n?17)) 0)
                             (<= (+ (- |j'?2|) n?17) 0)
                             (<= (+ (- |j'?2|) k?18 1) 0)
                             (<= (+ |j'?2| (- n?17) (- k?18)) 0)
                             (<= (+ (- |i'?4|) 2) 0)))
                (= (+ |i'?4| (- K?7) (- k?18) -1) 0) (<= (- K?7) 0)
                (< (- |i'?4|) 0) (< (- |j'?2|) 0) (< (- n?17) 0)
                (<= (- k?18) 0) (<= (+ (- |i'?4|) n?17) 0)
                (= (+ |k'?1| (- k?18) -1) 0) (= (+ |j'?14| (- |j'?2|)) 0)
                (= (+ |i'?13| (- |i'?4|)) 0) (= delta_i (+ |i'?13| (- i?15)))
                (= delta_j (+ |j'?14| (- j?16)))
                (= delta_k (+ |k'?1| (- k?18))))))
(check-sat)
